data/results/2026_03_23_15_57_01_set_exp_3_exp_3_n006_c002_g004_max.sol
# Objective value = 6
c_n0n1n3 3
c_n0n3n5 3
y_n0n1 0
y_n1n2 0
y_n0n2 0
y_n1n3 1
y_n0n3 0
y_n1n4 0
y_n0n4 0
y_n1n5 1
y_n0n5 1
y_n2n3 1
y_n2n4 0
y_n2n5 1
y_n3n4 0
y_n3n5 1
y_n4n5 1
pos_n0 4
pos_n1 2
pos_n2 1
pos_n3 3
pos_n4 0
pos_n5 5
z_n1n2 0
z_n2n3 0
z_n2n5 0
z_n1n3 1
z_n1n5 0
z_n3n5 0
z_n0n3 1
z_n0n4 0
z_n0n1 0
z_n0n5 1
z_n3n4 0
